&CONTROL
  calculation = 'vc-relax',
  outdir = './',
  pseudo_dir = './pseudo/pseudo_PAW/',
  tstress = .TRUE.,
/
&SYSTEM
  ecutwfc = 50,
  ibrav = 0,
  nat = 10,
  ntyp = 2,
/
&ELECTRONS
/
&IONS
/
&CELL
/
ATOMIC_SPECIES
  C  12.0107 C.upf
  Ti  47.8670 Ti.upf
ATOMIC_POSITIONS crystal
  Ti       0.666170240   0.333829760   0.342629019
  Ti       0.333827861   0.666172139   0.842656069
  Ti       0.333829760   0.666170240   0.657370981
  Ti       0.666172139   0.333827861   0.157343931
  Ti      -0.000000000  -0.000000000   0.500000000
  Ti      -0.000000000  -0.000000000   0.000000000
  C        0.333331967   0.666668033   0.413869425
  C        0.666671209   0.333328791   0.913897005
  C        0.333328791   0.666671209   0.086102995
  C        0.666668033   0.333331967   0.586130575
K_POINTS automatic
  3 3 1 0 0 0
CELL_PARAMETERS angstrom
   1.524221724  -2.661303054  -0.000036399
   1.524221724   2.661303054   0.000036399
  -0.000000000   0.000204162  15.168211704
