&CONTROL
  calculation = 'vc-relax',
  outdir = './',
  pseudo_dir = './pseudo/pseudo_PAW/',
  tstress = .TRUE.,
/
&SYSTEM
  ecutwfc = 50,
  ibrav = 0,
  nat = 10,
  ntyp = 2,
/
&ELECTRONS
/
&IONS
/
&CELL
/
ATOMIC_SPECIES
  C  12.0107 C.upf
  Ti  47.8670 Ti.upf
ATOMIC_POSITIONS crystal
  Ti       0.666667000   0.333333000   0.343385745
  Ti       0.333333000   0.666667000   0.843307031
  Ti       0.333333000   0.666667000   0.656614255
  Ti       0.666667000   0.333333000   0.156692969
  Ti       0.000000000   0.000000000   0.500000000
  Ti       0.000000000   0.000000000   0.000000000
  C        0.333333000   0.666667000   0.414250951
  C        0.666667000   0.333333000   0.914278916
  C        0.333333000   0.666667000   0.085721084
  C        0.666667000   0.333333000   0.585749049
K_POINTS automatic
  3 3 3 0 0 0
CELL_PARAMETERS angstrom
  1.533303 -2.655757 -0.000000
  1.533303 2.655757 0.000000
  0.000000 0.000000 15.117150
