&CONTROL
  calculation = 'scf',
/
&SYSTEM
  ibrav = 0,
  nat = 2,
  ntyp = 1,
/
&ELECTRONS
/
&IONS
/
&CELL
/
ATOMIC_SPECIES
  Si  28.0855 Si.PBE.UPF
ATOMIC_POSITIONS crystal
  Si 0.250000 0.250000 0.250000
  Si 0.000000 0.000000 0.000000
K_POINTS automatic
  1 1 1 0 0 0
CELL_PARAMETERS angstrom
  0.000000 3.007800 3.007800
  3.007800 0.000000 3.007800
  3.007800 3.007800 0.000000