&CONTROL
  calculation = 'relax',
  outdir = './',
  pseudo_dir = './',
  tstress = .TRUE.,
/
&SYSTEM
  ecutwfc = 40,
  ibrav = 0,
  nat = 2,
  ntyp = 2,
/
&ELECTRONS
/
&IONS
/
&CELL
/
ATOMIC_SPECIES
  Mg  24.3050 Mg.PBE.UPF
  O  15.9994 O.PBE.UPF
ATOMIC_POSITIONS crystal
  Mg 0.000000 0.000000 0.000000
  O 0.500000 0.500000 0.500000
K_POINTS automatic
  12 12 12 0 0 0
CELL_PARAMETERS angstrom
  0.000000 1.915418 1.915418
  1.915418 0.000000 1.915418
  1.915418 1.915418 0.000000